6 10 114
2 6 1 5 1 6 26 34 54 
2 1 1 3 1 22 42 44 64 
2 4 1 6 2 24 44 50 80 
2 2 1 5 2 8 28 56 86 
2 4 2 6 3 58 88 88 112 
1 3 2 68 108 
2 2 2 5 3 38 74 88 112 
2 1 2 4 3 48 84 90 114 
11 2 1 4 1 4 1 3 1 3 1 1 2 5 2 5 2 6 3 6 3 4 3 0 8 8 18 18 24 24 36 36 44 44 48 48 54 54 56 74 80 80 88 88 90 
14 6 1 1 1 1 1 5 1 5 1 2 2 2 2 6 2 6 2 4 2 3 2 3 2 5 3 5 3 0 6 6 14 14 22 22 28 28 34 34 36 36 38 38 42 42 50 50 58 62 64 64 68 78 86 86 88 
